Test: fpga10_8_sat.cnf
Options: -print-activity -no-inverting-opt -activity-look-freq=1
WARNING: for repeatability, setting FPU to use double precision
============================[ Problem Statistics ]=============================
|                                                                             |
|  Number of symmetries:           22                                         |
|  Number of invertingSyms:         0                                         |
|  Number of variables:           120                                         |
|  Number of clauses:             448                                         |
|  Parse time:                   0.00 s                                       |
|                                                                             |
============================[ Search Statistics ]==============================
| Conflicts |          ORIGINAL         |          LEARNT          | Progress |
|           |    Vars  Clauses Literals |    Limit  Clauses Lit/Cl |          |
===============================================================================
ActiveSyms: 22
ActiveSyms: 19
ActiveSyms: 19
ActiveSyms: 19
ActiveSyms: 19
ActiveSyms: 20
ActiveSyms: 18
ActiveSyms: 18
ActiveSyms: 18
ActiveSyms: 19
ActiveSyms: 17
ActiveSyms: 17
ActiveSyms: 17
ActiveSyms: 19
ActiveSyms: 17
ActiveSyms: 17
ActiveSyms: 17
ActiveSyms: 19
ActiveSyms: 17
ActiveSyms: 17
ActiveSyms: 17
ActiveSyms: 19
ActiveSyms: 18
ActiveSyms: 18
ActiveSyms: 18
ActiveSyms: 16
ActiveSyms: 16
ActiveSyms: 16
ActiveSyms: 17
ActiveSyms: 15
ActiveSyms: 15
ActiveSyms: 15
ActiveSyms: 17
ActiveSyms: 15
ActiveSyms: 15
ActiveSyms: 15
ActiveSyms: 17
ActiveSyms: 15
ActiveSyms: 15
ActiveSyms: 15
ActiveSyms: 15
ActiveSyms: 14
ActiveSyms: 14
ActiveSyms: 14
ActiveSyms: 14
ActiveSyms: 13
ActiveSyms: 17
ActiveSyms: 15
ActiveSyms: 14
ActiveSyms: 12
ActiveSyms: 12
ActiveSyms: 12
ActiveSyms: 13
ActiveSyms: 17
ActiveSyms: 15
ActiveSyms: 13
ActiveSyms: 13
ActiveSyms: 12
ActiveSyms: 11
ActiveSyms: 12
ActiveSyms: 10
ActiveSyms: 12
ActiveSyms: 11
ActiveSyms: 9
ActiveSyms: 11
ActiveSyms: 12
ActiveSyms: 13
ActiveSyms: 13
ActiveSyms: 17
ActiveSyms: 16
ActiveSyms: 14
ActiveSyms: 14
ActiveSyms: 14
ActiveSyms: 14
ActiveSyms: 14
ActiveSyms: 14
ActiveSyms: 13
ActiveSyms: 12
ActiveSyms: 11
ActiveSyms: 10
ActiveSyms: 9
ActiveSyms: 12
ActiveSyms: 13
ActiveSyms: 14
ActiveSyms: 13
ActiveSyms: 13
ActiveSyms: 12
ActiveSyms: 11
ActiveSyms: 10
ActiveSyms: 11
ActiveSyms: 10
ActiveSyms: 9
ActiveSyms: 10
ActiveSyms: 12
ActiveSyms: 14
ActiveSyms: 13
ActiveSyms: 15
ActiveSyms: 14
ActiveSyms: 14
ActiveSyms: 14
ActiveSyms: 19
ActiveSyms: 17
ActiveSyms: 15
ActiveSyms: 15
ActiveSyms: 14
ActiveSyms: 12
ActiveSyms: 12
ActiveSyms: 12
ActiveSyms: 12
ActiveSyms: 13
ActiveSyms: 12
ActiveSyms: 13
ActiveSyms: 12
ActiveSyms: 13
ActiveSyms: 12
ActiveSyms: 13
ActiveSyms: 12
ActiveSyms: 12
ActiveSyms: 12
ActiveSyms: 11
ActiveSyms: 12
ActiveSyms: 10
ActiveSyms: 9
ActiveSyms: 8
ActiveSyms: 9
ActiveSyms: 8
ActiveSyms: 9
ActiveSyms: 11
ActiveSyms: 12
ActiveSyms: 13
ActiveSyms: 13
ActiveSyms: 12
ActiveSyms: 13
ActiveSyms: 12
ActiveSyms: 12
ActiveSyms: 11
ActiveSyms: 10
ActiveSyms: 10
ActiveSyms: 10
ActiveSyms: 10
ActiveSyms: 9
ActiveSyms: 10
ActiveSyms: 11
ActiveSyms: 10
ActiveSyms: 9
ActiveSyms: 8
ActiveSyms: 9
ActiveSyms: 8
ActiveSyms: 6
ActiveSyms: 9
ActiveSyms: 10
ActiveSyms: 9
ActiveSyms: 7
ActiveSyms: 9
ActiveSyms: 10
ActiveSyms: 12
ActiveSyms: 11
ActiveSyms: 13
ActiveSyms: 12
ActiveSyms: 14
ActiveSyms: 14
ActiveSyms: 13
ActiveSyms: 13
ActiveSyms: 12
ActiveSyms: 13
ActiveSyms: 12
ActiveSyms: 13
ActiveSyms: 12
ActiveSyms: 13
ActiveSyms: 12
ActiveSyms: 13
ActiveSyms: 13
ActiveSyms: 11
ActiveSyms: 11
ActiveSyms: 9
ActiveSyms: 10
ActiveSyms: 9
ActiveSyms: 13
ActiveSyms: 12
ActiveSyms: 13
ActiveSyms: 12
ActiveSyms: 13
ActiveSyms: 13
ActiveSyms: 14
ActiveSyms: 14
ActiveSyms: 13
ActiveSyms: 15
ActiveSyms: 15
ActiveSyms: 15
ActiveSyms: 19
ActiveSyms: 17
ActiveSyms: 15
ActiveSyms: 16
ActiveSyms: 14
ActiveSyms: 14
ActiveSyms: 14
ActiveSyms: 16
ActiveSyms: 16
ActiveSyms: 15
ActiveSyms: 13
ActiveSyms: 12
ActiveSyms: 10
ActiveSyms: 10
ActiveSyms: 11
ActiveSyms: 10
ActiveSyms: 9
ActiveSyms: 8
ActiveSyms: 7
ActiveSyms: 5
ActiveSyms: 5
ActiveSyms: 4
ActiveSyms: 5
ActiveSyms: 5
ActiveSyms: 9
ActiveSyms: 10
ActiveSyms: 10
ActiveSyms: 12
ActiveSyms: 13
ActiveSyms: 10
ActiveSyms: 11
ActiveSyms: 10
ActiveSyms: 8
ActiveSyms: 8
ActiveSyms: 8
ActiveSyms: 7
ActiveSyms: 7
ActiveSyms: 7
ActiveSyms: 6
ActiveSyms: 5
ActiveSyms: 4
ActiveSyms: 4
ActiveSyms: 3
ActiveSyms: 2
ActiveSyms: 2
ActiveSyms: 3
ActiveSyms: 2
ActiveSyms: 2
ActiveSyms: 2
ActiveSyms: 1
ActiveSyms: 2
ActiveSyms: 3
ActiveSyms: 6
ActiveSyms: 7
ActiveSyms: 7
ActiveSyms: 7
ActiveSyms: 7
ActiveSyms: 8
ActiveSyms: 8
ActiveSyms: 9
ActiveSyms: 8
ActiveSyms: 9
ActiveSyms: 7
ActiveSyms: 9
ActiveSyms: 10
ActiveSyms: 8
ActiveSyms: 7
ActiveSyms: 7
ActiveSyms: 6
ActiveSyms: 5
ActiveSyms: 5
ActiveSyms: 5
ActiveSyms: 5
ActiveSyms: 4
ActiveSyms: 4
ActiveSyms: 4
ActiveSyms: 4
ActiveSyms: 3
ActiveSyms: 4
ActiveSyms: 5
ActiveSyms: 5
ActiveSyms: 4
ActiveSyms: 4
ActiveSyms: 5
ActiveSyms: 5
ActiveSyms: 4
ActiveSyms: 4
ActiveSyms: 3
ActiveSyms: 4
ActiveSyms: 4
ActiveSyms: 5
ActiveSyms: 5
ActiveSyms: 5
ActiveSyms: 4
ActiveSyms: 5
ActiveSyms: 6
ActiveSyms: 7
ActiveSyms: 10
ActiveSyms: 9
ActiveSyms: 9
ActiveSyms: 8
ActiveSyms: 7
ActiveSyms: 6
ActiveSyms: 5
ActiveSyms: 5
ActiveSyms: 4
ActiveSyms: 5
ActiveSyms: 5
ActiveSyms: 4
ActiveSyms: 4
ActiveSyms: 3
|       100 |     120      448     1200 |      164      131     24 |  0.007 % |
ActiveSyms: 4
ActiveSyms: 4
ActiveSyms: 22
ActiveSyms: 18
ActiveSyms: 15
ActiveSyms: 12
ActiveSyms: 12
ActiveSyms: 12
ActiveSyms: 11
ActiveSyms: 13
ActiveSyms: 11
ActiveSyms: 11
ActiveSyms: 11
ActiveSyms: 11
ActiveSyms: 12
ActiveSyms: 11
ActiveSyms: 9
ActiveSyms: 8
ActiveSyms: 8
ActiveSyms: 8
ActiveSyms: 8
ActiveSyms: 9
ActiveSyms: 8
ActiveSyms: 7
ActiveSyms: 7
ActiveSyms: 7
ActiveSyms: 7
ActiveSyms: 9
ActiveSyms: 9
ActiveSyms: 9
ActiveSyms: 9
ActiveSyms: 9
ActiveSyms: 9
ActiveSyms: 8
ActiveSyms: 7
ActiveSyms: 8
ActiveSyms: 9
ActiveSyms: 9
ActiveSyms: 8
ActiveSyms: 7
ActiveSyms: 8
ActiveSyms: 9
ActiveSyms: 9
ActiveSyms: 9
ActiveSyms: 8
ActiveSyms: 8
ActiveSyms: 8
ActiveSyms: 9
ActiveSyms: 9
ActiveSyms: 8
ActiveSyms: 10
ActiveSyms: 9
ActiveSyms: 9
ActiveSyms: 10
ActiveSyms: 10
ActiveSyms: 11
ActiveSyms: 9
ActiveSyms: 8
ActiveSyms: 9
ActiveSyms: 9
ActiveSyms: 8
ActiveSyms: 9
ActiveSyms: 8
ActiveSyms: 9
ActiveSyms: 9
ActiveSyms: 10
ActiveSyms: 10
ActiveSyms: 9
ActiveSyms: 9
ActiveSyms: 9
ActiveSyms: 9
ActiveSyms: 9
ActiveSyms: 8
ActiveSyms: 9
ActiveSyms: 8
ActiveSyms: 9
ActiveSyms: 8
ActiveSyms: 10
ActiveSyms: 8
ActiveSyms: 7
ActiveSyms: 9
ActiveSyms: 9
ActiveSyms: 9
ActiveSyms: 9
ActiveSyms: 10
ActiveSyms: 10
ActiveSyms: 10
ActiveSyms: 9
ActiveSyms: 9
ActiveSyms: 9
ActiveSyms: 8
ActiveSyms: 9
ActiveSyms: 9
ActiveSyms: 9
ActiveSyms: 9
ActiveSyms: 9
ActiveSyms: 9
ActiveSyms: 9
ActiveSyms: 7
ActiveSyms: 7
ActiveSyms: 7
ActiveSyms: 7
ActiveSyms: 7
ActiveSyms: 7
ActiveSyms: 7
ActiveSyms: 7
ActiveSyms: 7
ActiveSyms: 6
ActiveSyms: 7
ActiveSyms: 7
ActiveSyms: 6
ActiveSyms: 7
ActiveSyms: 7
ActiveSyms: 6
ActiveSyms: 7
ActiveSyms: 7
ActiveSyms: 6
ActiveSyms: 8
ActiveSyms: 7
ActiveSyms: 6
ActiveSyms: 7
ActiveSyms: 7
ActiveSyms: 7
ActiveSyms: 7
ActiveSyms: 7
ActiveSyms: 7
ActiveSyms: 8
ActiveSyms: 8
ActiveSyms: 8
ActiveSyms: 7
ActiveSyms: 8
ActiveSyms: 7
ActiveSyms: 6
ActiveSyms: 7
ActiveSyms: 8
ActiveSyms: 7
ActiveSyms: 8
ActiveSyms: 7
ActiveSyms: 8
ActiveSyms: 8
ActiveSyms: 8
ActiveSyms: 8
ActiveSyms: 8
ActiveSyms: 8
ActiveSyms: 8
ActiveSyms: 8
ActiveSyms: 7
ActiveSyms: 8
ActiveSyms: 7
ActiveSyms: 7
ActiveSyms: 7
ActiveSyms: 7
ActiveSyms: 6
ActiveSyms: 5
ActiveSyms: 5
ActiveSyms: 5
ActiveSyms: 6
ActiveSyms: 5
ActiveSyms: 5
ActiveSyms: 5
ActiveSyms: 6
ActiveSyms: 5
ActiveSyms: 4
ActiveSyms: 4
ActiveSyms: 5
ActiveSyms: 4
ActiveSyms: 4
ActiveSyms: 3
ActiveSyms: 3
ActiveSyms: 2
ActiveSyms: 2
ActiveSyms: 2
ActiveSyms: 1
ActiveSyms: 1
ActiveSyms: 1
ActiveSyms: 0
===============================================================================
restarts              : 2
conflicts             : 151            (37750 /sec)
symconflicts          : 44             (11000 /sec)
decisions             : 324            (0.00 % random) (81000 /sec)
propagations          : 7225           (1806250 /sec)
sympropagations       : 187            (46750 /sec)
conflict literals     : 3735           (3.21 % deleted)
literals     : 3735           (3.21 % deleted)

HEURISTIC USAGES
random                : 0           
activity w/ lookahead : 323         
activity no lookahead : 0           
original sp           : 0           
sym count             : 0           

Memory used           : 5.00 MB
CPU time              : 0.004 s

SATISFIABLE
